c *********************************
c * Circuit generated by BenCGen
c *
c * CarrySelectAdder_44_44_44_InOut_G4T
c *
c * Ports with 1 gate(s): 73
c * Ports with 2 gate(s): 591
c * Ports with 4 gate(s): 20
c * Total gates: 684
c *********************************
p cnf 772 2187
1 135 0
-1 -135 0
1 -134 0
135 -134 0
-1 -135 134 0
134 152 0
-134 -152 0
1 45 -138 0
-1 45 138 0
1 -45 138 0
-1 -45 -138 0
138 134 -89 0
-138 134 89 0
138 -134 89 0
-138 -134 -89 0
134 -139 0
138 -139 0
-134 -138 139 0
45 -140 0
1 -140 0
-45 -1 140 0
-139 137 0
-140 137 0
139 140 -137 0
2 46 -142 0
-2 46 142 0
2 -46 142 0
-2 -46 -142 0
142 137 -90 0
-142 137 90 0
142 -137 90 0
-142 -137 -90 0
137 -143 0
142 -143 0
-137 -142 143 0
46 -144 0
2 -144 0
-46 -2 144 0
-143 141 0
-144 141 0
143 144 -141 0
3 47 -146 0
-3 47 146 0
3 -47 146 0
-3 -47 -146 0
146 141 -91 0
-146 141 91 0
146 -141 91 0
-146 -141 -91 0
141 -147 0
146 -147 0
-141 -146 147 0
47 -148 0
3 -148 0
-47 -3 148 0
-147 145 0
-148 145 0
147 148 -145 0
4 48 -149 0
-4 48 149 0
4 -48 149 0
-4 -48 -149 0
149 145 -92 0
-149 145 92 0
149 -145 92 0
-149 -145 -92 0
145 -150 0
149 -150 0
-145 -149 150 0
48 -151 0
4 -151 0
-48 -4 151 0
-150 136 0
-151 136 0
150 151 -136 0
5 49 -163 0
-5 49 163 0
5 -49 163 0
-5 -49 -163 0
163 134 -153 0
-163 134 153 0
163 -134 153 0
-163 -134 -153 0
134 -164 0
163 -164 0
-134 -163 164 0
49 -165 0
5 -165 0
-49 -5 165 0
-164 162 0
-165 162 0
164 165 -162 0
6 50 -167 0
-6 50 167 0
6 -50 167 0
-6 -50 -167 0
167 162 -154 0
-167 162 154 0
167 -162 154 0
-167 -162 -154 0
162 -168 0
167 -168 0
-162 -167 168 0
50 -169 0
6 -169 0
-50 -6 169 0
-168 166 0
-169 166 0
168 169 -166 0
7 51 -171 0
-7 51 171 0
7 -51 171 0
-7 -51 -171 0
171 166 -155 0
-171 166 155 0
171 -166 155 0
-171 -166 -155 0
166 -172 0
171 -172 0
-166 -171 172 0
51 -173 0
7 -173 0
-51 -7 173 0
-172 170 0
-173 170 0
172 173 -170 0
8 52 -174 0
-8 52 174 0
8 -52 174 0
-8 -52 -174 0
174 170 -156 0
-174 170 156 0
174 -170 156 0
-174 -170 -156 0
170 -175 0
174 -175 0
-170 -174 175 0
52 -176 0
8 -176 0
-52 -8 176 0
-175 161 0
-176 161 0
175 176 -161 0
163 -177 0
167 -177 0
171 -177 0
174 -177 0
-163 -167 -171 -174 177 0
176 -178 0
-176 178 0
5 49 -181 0
-5 49 181 0
5 -49 181 0
-5 -49 -181 0
181 152 -157 0
-181 152 157 0
181 -152 157 0
-181 -152 -157 0
152 -182 0
181 -182 0
-152 -181 182 0
49 -183 0
5 -183 0
-49 -5 183 0
-182 180 0
-183 180 0
182 183 -180 0
6 50 -185 0
-6 50 185 0
6 -50 185 0
-6 -50 -185 0
185 180 -158 0
-185 180 158 0
185 -180 158 0
-185 -180 -158 0
180 -186 0
185 -186 0
-180 -185 186 0
50 -187 0
6 -187 0
-50 -6 187 0
-186 184 0
-187 184 0
186 187 -184 0
7 51 -189 0
-7 51 189 0
7 -51 189 0
-7 -51 -189 0
189 184 -159 0
-189 184 159 0
189 -184 159 0
-189 -184 -159 0
184 -190 0
189 -190 0
-184 -189 190 0
51 -191 0
7 -191 0
-51 -7 191 0
-190 188 0
-191 188 0
190 191 -188 0
8 52 -192 0
-8 52 192 0
8 -52 192 0
-8 -52 -192 0
192 188 -160 0
-192 188 160 0
192 -188 160 0
-192 -188 -160 0
188 -193 0
192 -193 0
-188 -192 193 0
52 -194 0
8 -194 0
-52 -8 194 0
-193 179 0
-194 179 0
193 194 -179 0
181 -195 0
185 -195 0
189 -195 0
192 -195 0
-181 -185 -189 -192 195 0
194 -196 0
-194 196 0
9 53 -225 0
-9 53 225 0
9 -53 225 0
-9 -53 -225 0
225 134 -215 0
-225 134 215 0
225 -134 215 0
-225 -134 -215 0
134 -226 0
225 -226 0
-134 -225 226 0
53 -227 0
9 -227 0
-53 -9 227 0
-226 224 0
-227 224 0
226 227 -224 0
10 54 -229 0
-10 54 229 0
10 -54 229 0
-10 -54 -229 0
229 224 -216 0
-229 224 216 0
229 -224 216 0
-229 -224 -216 0
224 -230 0
229 -230 0
-224 -229 230 0
54 -231 0
10 -231 0
-54 -10 231 0
-230 228 0
-231 228 0
230 231 -228 0
11 55 -233 0
-11 55 233 0
11 -55 233 0
-11 -55 -233 0
233 228 -217 0
-233 228 217 0
233 -228 217 0
-233 -228 -217 0
228 -234 0
233 -234 0
-228 -233 234 0
55 -235 0
11 -235 0
-55 -11 235 0
-234 232 0
-235 232 0
234 235 -232 0
12 56 -236 0
-12 56 236 0
12 -56 236 0
-12 -56 -236 0
236 232 -218 0
-236 232 218 0
236 -232 218 0
-236 -232 -218 0
232 -237 0
236 -237 0
-232 -236 237 0
56 -238 0
12 -238 0
-56 -12 238 0
-237 223 0
-238 223 0
237 238 -223 0
225 -239 0
229 -239 0
233 -239 0
236 -239 0
-225 -229 -233 -236 239 0
238 -240 0
-238 240 0
9 53 -243 0
-9 53 243 0
9 -53 243 0
-9 -53 -243 0
243 152 -219 0
-243 152 219 0
243 -152 219 0
-243 -152 -219 0
152 -244 0
243 -244 0
-152 -243 244 0
53 -245 0
9 -245 0
-53 -9 245 0
-244 242 0
-245 242 0
244 245 -242 0
10 54 -247 0
-10 54 247 0
10 -54 247 0
-10 -54 -247 0
247 242 -220 0
-247 242 220 0
247 -242 220 0
-247 -242 -220 0
242 -248 0
247 -248 0
-242 -247 248 0
54 -249 0
10 -249 0
-54 -10 249 0
-248 246 0
-249 246 0
248 249 -246 0
11 55 -251 0
-11 55 251 0
11 -55 251 0
-11 -55 -251 0
251 246 -221 0
-251 246 221 0
251 -246 221 0
-251 -246 -221 0
246 -252 0
251 -252 0
-246 -251 252 0
55 -253 0
11 -253 0
-55 -11 253 0
-252 250 0
-253 250 0
252 253 -250 0
12 56 -254 0
-12 56 254 0
12 -56 254 0
-12 -56 -254 0
254 250 -222 0
-254 250 222 0
254 -250 222 0
-254 -250 -222 0
250 -255 0
254 -255 0
-250 -254 255 0
56 -256 0
12 -256 0
-56 -12 256 0
-255 241 0
-256 241 0
255 256 -241 0
243 -257 0
247 -257 0
251 -257 0
254 -257 0
-243 -247 -251 -254 257 0
256 -258 0
-256 258 0
13 57 -287 0
-13 57 287 0
13 -57 287 0
-13 -57 -287 0
287 134 -277 0
-287 134 277 0
287 -134 277 0
-287 -134 -277 0
134 -288 0
287 -288 0
-134 -287 288 0
57 -289 0
13 -289 0
-57 -13 289 0
-288 286 0
-289 286 0
288 289 -286 0
14 58 -291 0
-14 58 291 0
14 -58 291 0
-14 -58 -291 0
291 286 -278 0
-291 286 278 0
291 -286 278 0
-291 -286 -278 0
286 -292 0
291 -292 0
-286 -291 292 0
58 -293 0
14 -293 0
-58 -14 293 0
-292 290 0
-293 290 0
292 293 -290 0
15 59 -295 0
-15 59 295 0
15 -59 295 0
-15 -59 -295 0
295 290 -279 0
-295 290 279 0
295 -290 279 0
-295 -290 -279 0
290 -296 0
295 -296 0
-290 -295 296 0
59 -297 0
15 -297 0
-59 -15 297 0
-296 294 0
-297 294 0
296 297 -294 0
16 60 -298 0
-16 60 298 0
16 -60 298 0
-16 -60 -298 0
298 294 -280 0
-298 294 280 0
298 -294 280 0
-298 -294 -280 0
294 -299 0
298 -299 0
-294 -298 299 0
60 -300 0
16 -300 0
-60 -16 300 0
-299 285 0
-300 285 0
299 300 -285 0
287 -301 0
291 -301 0
295 -301 0
298 -301 0
-287 -291 -295 -298 301 0
300 -302 0
-300 302 0
13 57 -305 0
-13 57 305 0
13 -57 305 0
-13 -57 -305 0
305 152 -281 0
-305 152 281 0
305 -152 281 0
-305 -152 -281 0
152 -306 0
305 -306 0
-152 -305 306 0
57 -307 0
13 -307 0
-57 -13 307 0
-306 304 0
-307 304 0
306 307 -304 0
14 58 -309 0
-14 58 309 0
14 -58 309 0
-14 -58 -309 0
309 304 -282 0
-309 304 282 0
309 -304 282 0
-309 -304 -282 0
304 -310 0
309 -310 0
-304 -309 310 0
58 -311 0
14 -311 0
-58 -14 311 0
-310 308 0
-311 308 0
310 311 -308 0
15 59 -313 0
-15 59 313 0
15 -59 313 0
-15 -59 -313 0
313 308 -283 0
-313 308 283 0
313 -308 283 0
-313 -308 -283 0
308 -314 0
313 -314 0
-308 -313 314 0
59 -315 0
15 -315 0
-59 -15 315 0
-314 312 0
-315 312 0
314 315 -312 0
16 60 -316 0
-16 60 316 0
16 -60 316 0
-16 -60 -316 0
316 312 -284 0
-316 312 284 0
316 -312 284 0
-316 -312 -284 0
312 -317 0
316 -317 0
-312 -316 317 0
60 -318 0
16 -318 0
-60 -16 318 0
-317 303 0
-318 303 0
317 318 -303 0
305 -319 0
309 -319 0
313 -319 0
316 -319 0
-305 -309 -313 -316 319 0
318 -320 0
-318 320 0
17 61 -349 0
-17 61 349 0
17 -61 349 0
-17 -61 -349 0
349 134 -339 0
-349 134 339 0
349 -134 339 0
-349 -134 -339 0
134 -350 0
349 -350 0
-134 -349 350 0
61 -351 0
17 -351 0
-61 -17 351 0
-350 348 0
-351 348 0
350 351 -348 0
18 62 -353 0
-18 62 353 0
18 -62 353 0
-18 -62 -353 0
353 348 -340 0
-353 348 340 0
353 -348 340 0
-353 -348 -340 0
348 -354 0
353 -354 0
-348 -353 354 0
62 -355 0
18 -355 0
-62 -18 355 0
-354 352 0
-355 352 0
354 355 -352 0
19 63 -357 0
-19 63 357 0
19 -63 357 0
-19 -63 -357 0
357 352 -341 0
-357 352 341 0
357 -352 341 0
-357 -352 -341 0
352 -358 0
357 -358 0
-352 -357 358 0
63 -359 0
19 -359 0
-63 -19 359 0
-358 356 0
-359 356 0
358 359 -356 0
20 64 -360 0
-20 64 360 0
20 -64 360 0
-20 -64 -360 0
360 356 -342 0
-360 356 342 0
360 -356 342 0
-360 -356 -342 0
356 -361 0
360 -361 0
-356 -360 361 0
64 -362 0
20 -362 0
-64 -20 362 0
-361 347 0
-362 347 0
361 362 -347 0
349 -363 0
353 -363 0
357 -363 0
360 -363 0
-349 -353 -357 -360 363 0
362 -364 0
-362 364 0
17 61 -367 0
-17 61 367 0
17 -61 367 0
-17 -61 -367 0
367 152 -343 0
-367 152 343 0
367 -152 343 0
-367 -152 -343 0
152 -368 0
367 -368 0
-152 -367 368 0
61 -369 0
17 -369 0
-61 -17 369 0
-368 366 0
-369 366 0
368 369 -366 0
18 62 -371 0
-18 62 371 0
18 -62 371 0
-18 -62 -371 0
371 366 -344 0
-371 366 344 0
371 -366 344 0
-371 -366 -344 0
366 -372 0
371 -372 0
-366 -371 372 0
62 -373 0
18 -373 0
-62 -18 373 0
-372 370 0
-373 370 0
372 373 -370 0
19 63 -375 0
-19 63 375 0
19 -63 375 0
-19 -63 -375 0
375 370 -345 0
-375 370 345 0
375 -370 345 0
-375 -370 -345 0
370 -376 0
375 -376 0
-370 -375 376 0
63 -377 0
19 -377 0
-63 -19 377 0
-376 374 0
-377 374 0
376 377 -374 0
20 64 -378 0
-20 64 378 0
20 -64 378 0
-20 -64 -378 0
378 374 -346 0
-378 374 346 0
378 -374 346 0
-378 -374 -346 0
374 -379 0
378 -379 0
-374 -378 379 0
64 -380 0
20 -380 0
-64 -20 380 0
-379 365 0
-380 365 0
379 380 -365 0
367 -381 0
371 -381 0
375 -381 0
378 -381 0
-367 -371 -375 -378 381 0
380 -382 0
-380 382 0
21 65 -411 0
-21 65 411 0
21 -65 411 0
-21 -65 -411 0
411 134 -401 0
-411 134 401 0
411 -134 401 0
-411 -134 -401 0
134 -412 0
411 -412 0
-134 -411 412 0
65 -413 0
21 -413 0
-65 -21 413 0
-412 410 0
-413 410 0
412 413 -410 0
22 66 -415 0
-22 66 415 0
22 -66 415 0
-22 -66 -415 0
415 410 -402 0
-415 410 402 0
415 -410 402 0
-415 -410 -402 0
410 -416 0
415 -416 0
-410 -415 416 0
66 -417 0
22 -417 0
-66 -22 417 0
-416 414 0
-417 414 0
416 417 -414 0
23 67 -419 0
-23 67 419 0
23 -67 419 0
-23 -67 -419 0
419 414 -403 0
-419 414 403 0
419 -414 403 0
-419 -414 -403 0
414 -420 0
419 -420 0
-414 -419 420 0
67 -421 0
23 -421 0
-67 -23 421 0
-420 418 0
-421 418 0
420 421 -418 0
24 68 -422 0
-24 68 422 0
24 -68 422 0
-24 -68 -422 0
422 418 -404 0
-422 418 404 0
422 -418 404 0
-422 -418 -404 0
418 -423 0
422 -423 0
-418 -422 423 0
68 -424 0
24 -424 0
-68 -24 424 0
-423 409 0
-424 409 0
423 424 -409 0
411 -425 0
415 -425 0
419 -425 0
422 -425 0
-411 -415 -419 -422 425 0
424 -426 0
-424 426 0
21 65 -429 0
-21 65 429 0
21 -65 429 0
-21 -65 -429 0
429 152 -405 0
-429 152 405 0
429 -152 405 0
-429 -152 -405 0
152 -430 0
429 -430 0
-152 -429 430 0
65 -431 0
21 -431 0
-65 -21 431 0
-430 428 0
-431 428 0
430 431 -428 0
22 66 -433 0
-22 66 433 0
22 -66 433 0
-22 -66 -433 0
433 428 -406 0
-433 428 406 0
433 -428 406 0
-433 -428 -406 0
428 -434 0
433 -434 0
-428 -433 434 0
66 -435 0
22 -435 0
-66 -22 435 0
-434 432 0
-435 432 0
434 435 -432 0
23 67 -437 0
-23 67 437 0
23 -67 437 0
-23 -67 -437 0
437 432 -407 0
-437 432 407 0
437 -432 407 0
-437 -432 -407 0
432 -438 0
437 -438 0
-432 -437 438 0
67 -439 0
23 -439 0
-67 -23 439 0
-438 436 0
-439 436 0
438 439 -436 0
24 68 -440 0
-24 68 440 0
24 -68 440 0
-24 -68 -440 0
440 436 -408 0
-440 436 408 0
440 -436 408 0
-440 -436 -408 0
436 -441 0
440 -441 0
-436 -440 441 0
68 -442 0
24 -442 0
-68 -24 442 0
-441 427 0
-442 427 0
441 442 -427 0
429 -443 0
433 -443 0
437 -443 0
440 -443 0
-429 -433 -437 -440 443 0
442 -444 0
-442 444 0
25 69 -473 0
-25 69 473 0
25 -69 473 0
-25 -69 -473 0
473 134 -463 0
-473 134 463 0
473 -134 463 0
-473 -134 -463 0
134 -474 0
473 -474 0
-134 -473 474 0
69 -475 0
25 -475 0
-69 -25 475 0
-474 472 0
-475 472 0
474 475 -472 0
26 70 -477 0
-26 70 477 0
26 -70 477 0
-26 -70 -477 0
477 472 -464 0
-477 472 464 0
477 -472 464 0
-477 -472 -464 0
472 -478 0
477 -478 0
-472 -477 478 0
70 -479 0
26 -479 0
-70 -26 479 0
-478 476 0
-479 476 0
478 479 -476 0
27 71 -481 0
-27 71 481 0
27 -71 481 0
-27 -71 -481 0
481 476 -465 0
-481 476 465 0
481 -476 465 0
-481 -476 -465 0
476 -482 0
481 -482 0
-476 -481 482 0
71 -483 0
27 -483 0
-71 -27 483 0
-482 480 0
-483 480 0
482 483 -480 0
28 72 -484 0
-28 72 484 0
28 -72 484 0
-28 -72 -484 0
484 480 -466 0
-484 480 466 0
484 -480 466 0
-484 -480 -466 0
480 -485 0
484 -485 0
-480 -484 485 0
72 -486 0
28 -486 0
-72 -28 486 0
-485 471 0
-486 471 0
485 486 -471 0
473 -487 0
477 -487 0
481 -487 0
484 -487 0
-473 -477 -481 -484 487 0
486 -488 0
-486 488 0
25 69 -491 0
-25 69 491 0
25 -69 491 0
-25 -69 -491 0
491 152 -467 0
-491 152 467 0
491 -152 467 0
-491 -152 -467 0
152 -492 0
491 -492 0
-152 -491 492 0
69 -493 0
25 -493 0
-69 -25 493 0
-492 490 0
-493 490 0
492 493 -490 0
26 70 -495 0
-26 70 495 0
26 -70 495 0
-26 -70 -495 0
495 490 -468 0
-495 490 468 0
495 -490 468 0
-495 -490 -468 0
490 -496 0
495 -496 0
-490 -495 496 0
70 -497 0
26 -497 0
-70 -26 497 0
-496 494 0
-497 494 0
496 497 -494 0
27 71 -499 0
-27 71 499 0
27 -71 499 0
-27 -71 -499 0
499 494 -469 0
-499 494 469 0
499 -494 469 0
-499 -494 -469 0
494 -500 0
499 -500 0
-494 -499 500 0
71 -501 0
27 -501 0
-71 -27 501 0
-500 498 0
-501 498 0
500 501 -498 0
28 72 -502 0
-28 72 502 0
28 -72 502 0
-28 -72 -502 0
502 498 -470 0
-502 498 470 0
502 -498 470 0
-502 -498 -470 0
498 -503 0
502 -503 0
-498 -502 503 0
72 -504 0
28 -504 0
-72 -28 504 0
-503 489 0
-504 489 0
503 504 -489 0
491 -505 0
495 -505 0
499 -505 0
502 -505 0
-491 -495 -499 -502 505 0
504 -506 0
-504 506 0
29 73 -535 0
-29 73 535 0
29 -73 535 0
-29 -73 -535 0
535 134 -525 0
-535 134 525 0
535 -134 525 0
-535 -134 -525 0
134 -536 0
535 -536 0
-134 -535 536 0
73 -537 0
29 -537 0
-73 -29 537 0
-536 534 0
-537 534 0
536 537 -534 0
30 74 -539 0
-30 74 539 0
30 -74 539 0
-30 -74 -539 0
539 534 -526 0
-539 534 526 0
539 -534 526 0
-539 -534 -526 0
534 -540 0
539 -540 0
-534 -539 540 0
74 -541 0
30 -541 0
-74 -30 541 0
-540 538 0
-541 538 0
540 541 -538 0
31 75 -543 0
-31 75 543 0
31 -75 543 0
-31 -75 -543 0
543 538 -527 0
-543 538 527 0
543 -538 527 0
-543 -538 -527 0
538 -544 0
543 -544 0
-538 -543 544 0
75 -545 0
31 -545 0
-75 -31 545 0
-544 542 0
-545 542 0
544 545 -542 0
32 76 -546 0
-32 76 546 0
32 -76 546 0
-32 -76 -546 0
546 542 -528 0
-546 542 528 0
546 -542 528 0
-546 -542 -528 0
542 -547 0
546 -547 0
-542 -546 547 0
76 -548 0
32 -548 0
-76 -32 548 0
-547 533 0
-548 533 0
547 548 -533 0
535 -549 0
539 -549 0
543 -549 0
546 -549 0
-535 -539 -543 -546 549 0
548 -550 0
-548 550 0
29 73 -553 0
-29 73 553 0
29 -73 553 0
-29 -73 -553 0
553 152 -529 0
-553 152 529 0
553 -152 529 0
-553 -152 -529 0
152 -554 0
553 -554 0
-152 -553 554 0
73 -555 0
29 -555 0
-73 -29 555 0
-554 552 0
-555 552 0
554 555 -552 0
30 74 -557 0
-30 74 557 0
30 -74 557 0
-30 -74 -557 0
557 552 -530 0
-557 552 530 0
557 -552 530 0
-557 -552 -530 0
552 -558 0
557 -558 0
-552 -557 558 0
74 -559 0
30 -559 0
-74 -30 559 0
-558 556 0
-559 556 0
558 559 -556 0
31 75 -561 0
-31 75 561 0
31 -75 561 0
-31 -75 -561 0
561 556 -531 0
-561 556 531 0
561 -556 531 0
-561 -556 -531 0
556 -562 0
561 -562 0
-556 -561 562 0
75 -563 0
31 -563 0
-75 -31 563 0
-562 560 0
-563 560 0
562 563 -560 0
32 76 -564 0
-32 76 564 0
32 -76 564 0
-32 -76 -564 0
564 560 -532 0
-564 560 532 0
564 -560 532 0
-564 -560 -532 0
560 -565 0
564 -565 0
-560 -564 565 0
76 -566 0
32 -566 0
-76 -32 566 0
-565 551 0
-566 551 0
565 566 -551 0
553 -567 0
557 -567 0
561 -567 0
564 -567 0
-553 -557 -561 -564 567 0
566 -568 0
-566 568 0
33 77 -597 0
-33 77 597 0
33 -77 597 0
-33 -77 -597 0
597 134 -587 0
-597 134 587 0
597 -134 587 0
-597 -134 -587 0
134 -598 0
597 -598 0
-134 -597 598 0
77 -599 0
33 -599 0
-77 -33 599 0
-598 596 0
-599 596 0
598 599 -596 0
34 78 -601 0
-34 78 601 0
34 -78 601 0
-34 -78 -601 0
601 596 -588 0
-601 596 588 0
601 -596 588 0
-601 -596 -588 0
596 -602 0
601 -602 0
-596 -601 602 0
78 -603 0
34 -603 0
-78 -34 603 0
-602 600 0
-603 600 0
602 603 -600 0
35 79 -605 0
-35 79 605 0
35 -79 605 0
-35 -79 -605 0
605 600 -589 0
-605 600 589 0
605 -600 589 0
-605 -600 -589 0
600 -606 0
605 -606 0
-600 -605 606 0
79 -607 0
35 -607 0
-79 -35 607 0
-606 604 0
-607 604 0
606 607 -604 0
36 80 -608 0
-36 80 608 0
36 -80 608 0
-36 -80 -608 0
608 604 -590 0
-608 604 590 0
608 -604 590 0
-608 -604 -590 0
604 -609 0
608 -609 0
-604 -608 609 0
80 -610 0
36 -610 0
-80 -36 610 0
-609 595 0
-610 595 0
609 610 -595 0
597 -611 0
601 -611 0
605 -611 0
608 -611 0
-597 -601 -605 -608 611 0
610 -612 0
-610 612 0
33 77 -615 0
-33 77 615 0
33 -77 615 0
-33 -77 -615 0
615 152 -591 0
-615 152 591 0
615 -152 591 0
-615 -152 -591 0
152 -616 0
615 -616 0
-152 -615 616 0
77 -617 0
33 -617 0
-77 -33 617 0
-616 614 0
-617 614 0
616 617 -614 0
34 78 -619 0
-34 78 619 0
34 -78 619 0
-34 -78 -619 0
619 614 -592 0
-619 614 592 0
619 -614 592 0
-619 -614 -592 0
614 -620 0
619 -620 0
-614 -619 620 0
78 -621 0
34 -621 0
-78 -34 621 0
-620 618 0
-621 618 0
620 621 -618 0
35 79 -623 0
-35 79 623 0
35 -79 623 0
-35 -79 -623 0
623 618 -593 0
-623 618 593 0
623 -618 593 0
-623 -618 -593 0
618 -624 0
623 -624 0
-618 -623 624 0
79 -625 0
35 -625 0
-79 -35 625 0
-624 622 0
-625 622 0
624 625 -622 0
36 80 -626 0
-36 80 626 0
36 -80 626 0
-36 -80 -626 0
626 622 -594 0
-626 622 594 0
626 -622 594 0
-626 -622 -594 0
622 -627 0
626 -627 0
-622 -626 627 0
80 -628 0
36 -628 0
-80 -36 628 0
-627 613 0
-628 613 0
627 628 -613 0
615 -629 0
619 -629 0
623 -629 0
626 -629 0
-615 -619 -623 -626 629 0
628 -630 0
-628 630 0
37 81 -659 0
-37 81 659 0
37 -81 659 0
-37 -81 -659 0
659 134 -649 0
-659 134 649 0
659 -134 649 0
-659 -134 -649 0
134 -660 0
659 -660 0
-134 -659 660 0
81 -661 0
37 -661 0
-81 -37 661 0
-660 658 0
-661 658 0
660 661 -658 0
38 82 -663 0
-38 82 663 0
38 -82 663 0
-38 -82 -663 0
663 658 -650 0
-663 658 650 0
663 -658 650 0
-663 -658 -650 0
658 -664 0
663 -664 0
-658 -663 664 0
82 -665 0
38 -665 0
-82 -38 665 0
-664 662 0
-665 662 0
664 665 -662 0
39 83 -667 0
-39 83 667 0
39 -83 667 0
-39 -83 -667 0
667 662 -651 0
-667 662 651 0
667 -662 651 0
-667 -662 -651 0
662 -668 0
667 -668 0
-662 -667 668 0
83 -669 0
39 -669 0
-83 -39 669 0
-668 666 0
-669 666 0
668 669 -666 0
40 84 -670 0
-40 84 670 0
40 -84 670 0
-40 -84 -670 0
670 666 -652 0
-670 666 652 0
670 -666 652 0
-670 -666 -652 0
666 -671 0
670 -671 0
-666 -670 671 0
84 -672 0
40 -672 0
-84 -40 672 0
-671 657 0
-672 657 0
671 672 -657 0
659 -673 0
663 -673 0
667 -673 0
670 -673 0
-659 -663 -667 -670 673 0
672 -674 0
-672 674 0
37 81 -677 0
-37 81 677 0
37 -81 677 0
-37 -81 -677 0
677 152 -653 0
-677 152 653 0
677 -152 653 0
-677 -152 -653 0
152 -678 0
677 -678 0
-152 -677 678 0
81 -679 0
37 -679 0
-81 -37 679 0
-678 676 0
-679 676 0
678 679 -676 0
38 82 -681 0
-38 82 681 0
38 -82 681 0
-38 -82 -681 0
681 676 -654 0
-681 676 654 0
681 -676 654 0
-681 -676 -654 0
676 -682 0
681 -682 0
-676 -681 682 0
82 -683 0
38 -683 0
-82 -38 683 0
-682 680 0
-683 680 0
682 683 -680 0
39 83 -685 0
-39 83 685 0
39 -83 685 0
-39 -83 -685 0
685 680 -655 0
-685 680 655 0
685 -680 655 0
-685 -680 -655 0
680 -686 0
685 -686 0
-680 -685 686 0
83 -687 0
39 -687 0
-83 -39 687 0
-686 684 0
-687 684 0
686 687 -684 0
40 84 -688 0
-40 84 688 0
40 -84 688 0
-40 -84 -688 0
688 684 -656 0
-688 684 656 0
688 -684 656 0
-688 -684 -656 0
684 -689 0
688 -689 0
-684 -688 689 0
84 -690 0
40 -690 0
-84 -40 690 0
-689 675 0
-690 675 0
689 690 -675 0
677 -691 0
681 -691 0
685 -691 0
688 -691 0
-677 -681 -685 -688 691 0
690 -692 0
-690 692 0
41 85 -721 0
-41 85 721 0
41 -85 721 0
-41 -85 -721 0
721 134 -711 0
-721 134 711 0
721 -134 711 0
-721 -134 -711 0
134 -722 0
721 -722 0
-134 -721 722 0
85 -723 0
41 -723 0
-85 -41 723 0
-722 720 0
-723 720 0
722 723 -720 0
42 86 -725 0
-42 86 725 0
42 -86 725 0
-42 -86 -725 0
725 720 -712 0
-725 720 712 0
725 -720 712 0
-725 -720 -712 0
720 -726 0
725 -726 0
-720 -725 726 0
86 -727 0
42 -727 0
-86 -42 727 0
-726 724 0
-727 724 0
726 727 -724 0
43 87 -729 0
-43 87 729 0
43 -87 729 0
-43 -87 -729 0
729 724 -713 0
-729 724 713 0
729 -724 713 0
-729 -724 -713 0
724 -730 0
729 -730 0
-724 -729 730 0
87 -731 0
43 -731 0
-87 -43 731 0
-730 728 0
-731 728 0
730 731 -728 0
44 88 -732 0
-44 88 732 0
44 -88 732 0
-44 -88 -732 0
732 728 -714 0
-732 728 714 0
732 -728 714 0
-732 -728 -714 0
728 -733 0
732 -733 0
-728 -732 733 0
88 -734 0
44 -734 0
-88 -44 734 0
-733 719 0
-734 719 0
733 734 -719 0
721 -735 0
725 -735 0
729 -735 0
732 -735 0
-721 -725 -729 -732 735 0
734 -736 0
-734 736 0
41 85 -739 0
-41 85 739 0
41 -85 739 0
-41 -85 -739 0
739 152 -715 0
-739 152 715 0
739 -152 715 0
-739 -152 -715 0
152 -740 0
739 -740 0
-152 -739 740 0
85 -741 0
41 -741 0
-85 -41 741 0
-740 738 0
-741 738 0
740 741 -738 0
42 86 -743 0
-42 86 743 0
42 -86 743 0
-42 -86 -743 0
743 738 -716 0
-743 738 716 0
743 -738 716 0
-743 -738 -716 0
738 -744 0
743 -744 0
-738 -743 744 0
86 -745 0
42 -745 0
-86 -42 745 0
-744 742 0
-745 742 0
744 745 -742 0
43 87 -747 0
-43 87 747 0
43 -87 747 0
-43 -87 -747 0
747 742 -717 0
-747 742 717 0
747 -742 717 0
-747 -742 -717 0
742 -748 0
747 -748 0
-742 -747 748 0
87 -749 0
43 -749 0
-87 -43 749 0
-748 746 0
-749 746 0
748 749 -746 0
44 88 -750 0
-44 88 750 0
44 -88 750 0
-44 -88 -750 0
750 746 -718 0
-750 746 718 0
750 -746 718 0
-750 -746 -718 0
746 -751 0
750 -751 0
-746 -750 751 0
88 -752 0
44 -752 0
-88 -44 752 0
-751 737 0
-752 737 0
751 752 -737 0
739 -753 0
743 -753 0
747 -753 0
750 -753 0
-739 -743 -747 -750 753 0
752 -754 0
-752 754 0
136 198 0
-136 -198 0
198 -199 0
153 -199 0
-198 -153 199 0
136 -200 0
157 -200 0
-136 -157 200 0
-199 93 0
-200 93 0
199 200 -93 0
136 201 0
-136 -201 0
201 -202 0
154 -202 0
-201 -154 202 0
136 -203 0
158 -203 0
-136 -158 203 0
-202 94 0
-203 94 0
202 203 -94 0
136 204 0
-136 -204 0
204 -205 0
155 -205 0
-204 -155 205 0
136 -206 0
159 -206 0
-136 -159 206 0
-205 95 0
-206 95 0
205 206 -95 0
136 207 0
-136 -207 0
207 -208 0
156 -208 0
-207 -156 208 0
136 -209 0
160 -209 0
-136 -160 209 0
-208 96 0
-209 96 0
208 209 -96 0
136 210 0
-136 -210 0
210 -211 0
161 -211 0
-210 -161 211 0
136 -212 0
179 -212 0
-136 -179 212 0
-211 197 0
-212 197 0
211 212 -197 0
136 -213 0
195 -213 0
-136 -195 213 0
-213 214 0
-197 214 0
213 197 -214 0
214 260 0
-214 -260 0
260 -261 0
215 -261 0
-260 -215 261 0
214 -262 0
219 -262 0
-214 -219 262 0
-261 97 0
-262 97 0
261 262 -97 0
214 263 0
-214 -263 0
263 -264 0
216 -264 0
-263 -216 264 0
214 -265 0
220 -265 0
-214 -220 265 0
-264 98 0
-265 98 0
264 265 -98 0
214 266 0
-214 -266 0
266 -267 0
217 -267 0
-266 -217 267 0
214 -268 0
221 -268 0
-214 -221 268 0
-267 99 0
-268 99 0
267 268 -99 0
214 269 0
-214 -269 0
269 -270 0
218 -270 0
-269 -218 270 0
214 -271 0
222 -271 0
-214 -222 271 0
-270 100 0
-271 100 0
270 271 -100 0
214 272 0
-214 -272 0
272 -273 0
223 -273 0
-272 -223 273 0
214 -274 0
241 -274 0
-214 -241 274 0
-273 259 0
-274 259 0
273 274 -259 0
214 -275 0
257 -275 0
-214 -257 275 0
-275 276 0
-259 276 0
275 259 -276 0
276 322 0
-276 -322 0
322 -323 0
277 -323 0
-322 -277 323 0
276 -324 0
281 -324 0
-276 -281 324 0
-323 101 0
-324 101 0
323 324 -101 0
276 325 0
-276 -325 0
325 -326 0
278 -326 0
-325 -278 326 0
276 -327 0
282 -327 0
-276 -282 327 0
-326 102 0
-327 102 0
326 327 -102 0
276 328 0
-276 -328 0
328 -329 0
279 -329 0
-328 -279 329 0
276 -330 0
283 -330 0
-276 -283 330 0
-329 103 0
-330 103 0
329 330 -103 0
276 331 0
-276 -331 0
331 -332 0
280 -332 0
-331 -280 332 0
276 -333 0
284 -333 0
-276 -284 333 0
-332 104 0
-333 104 0
332 333 -104 0
276 334 0
-276 -334 0
334 -335 0
285 -335 0
-334 -285 335 0
276 -336 0
303 -336 0
-276 -303 336 0
-335 321 0
-336 321 0
335 336 -321 0
276 -337 0
319 -337 0
-276 -319 337 0
-337 338 0
-321 338 0
337 321 -338 0
338 384 0
-338 -384 0
384 -385 0
339 -385 0
-384 -339 385 0
338 -386 0
343 -386 0
-338 -343 386 0
-385 105 0
-386 105 0
385 386 -105 0
338 387 0
-338 -387 0
387 -388 0
340 -388 0
-387 -340 388 0
338 -389 0
344 -389 0
-338 -344 389 0
-388 106 0
-389 106 0
388 389 -106 0
338 390 0
-338 -390 0
390 -391 0
341 -391 0
-390 -341 391 0
338 -392 0
345 -392 0
-338 -345 392 0
-391 107 0
-392 107 0
391 392 -107 0
338 393 0
-338 -393 0
393 -394 0
342 -394 0
-393 -342 394 0
338 -395 0
346 -395 0
-338 -346 395 0
-394 108 0
-395 108 0
394 395 -108 0
338 396 0
-338 -396 0
396 -397 0
347 -397 0
-396 -347 397 0
338 -398 0
365 -398 0
-338 -365 398 0
-397 383 0
-398 383 0
397 398 -383 0
338 -399 0
381 -399 0
-338 -381 399 0
-399 400 0
-383 400 0
399 383 -400 0
400 446 0
-400 -446 0
446 -447 0
401 -447 0
-446 -401 447 0
400 -448 0
405 -448 0
-400 -405 448 0
-447 109 0
-448 109 0
447 448 -109 0
400 449 0
-400 -449 0
449 -450 0
402 -450 0
-449 -402 450 0
400 -451 0
406 -451 0
-400 -406 451 0
-450 110 0
-451 110 0
450 451 -110 0
400 452 0
-400 -452 0
452 -453 0
403 -453 0
-452 -403 453 0
400 -454 0
407 -454 0
-400 -407 454 0
-453 111 0
-454 111 0
453 454 -111 0
400 455 0
-400 -455 0
455 -456 0
404 -456 0
-455 -404 456 0
400 -457 0
408 -457 0
-400 -408 457 0
-456 112 0
-457 112 0
456 457 -112 0
400 458 0
-400 -458 0
458 -459 0
409 -459 0
-458 -409 459 0
400 -460 0
427 -460 0
-400 -427 460 0
-459 445 0
-460 445 0
459 460 -445 0
400 -461 0
443 -461 0
-400 -443 461 0
-461 462 0
-445 462 0
461 445 -462 0
462 508 0
-462 -508 0
508 -509 0
463 -509 0
-508 -463 509 0
462 -510 0
467 -510 0
-462 -467 510 0
-509 113 0
-510 113 0
509 510 -113 0
462 511 0
-462 -511 0
511 -512 0
464 -512 0
-511 -464 512 0
462 -513 0
468 -513 0
-462 -468 513 0
-512 114 0
-513 114 0
512 513 -114 0
462 514 0
-462 -514 0
514 -515 0
465 -515 0
-514 -465 515 0
462 -516 0
469 -516 0
-462 -469 516 0
-515 115 0
-516 115 0
515 516 -115 0
462 517 0
-462 -517 0
517 -518 0
466 -518 0
-517 -466 518 0
462 -519 0
470 -519 0
-462 -470 519 0
-518 116 0
-519 116 0
518 519 -116 0
462 520 0
-462 -520 0
520 -521 0
471 -521 0
-520 -471 521 0
462 -522 0
489 -522 0
-462 -489 522 0
-521 507 0
-522 507 0
521 522 -507 0
462 -523 0
505 -523 0
-462 -505 523 0
-523 524 0
-507 524 0
523 507 -524 0
524 570 0
-524 -570 0
570 -571 0
525 -571 0
-570 -525 571 0
524 -572 0
529 -572 0
-524 -529 572 0
-571 117 0
-572 117 0
571 572 -117 0
524 573 0
-524 -573 0
573 -574 0
526 -574 0
-573 -526 574 0
524 -575 0
530 -575 0
-524 -530 575 0
-574 118 0
-575 118 0
574 575 -118 0
524 576 0
-524 -576 0
576 -577 0
527 -577 0
-576 -527 577 0
524 -578 0
531 -578 0
-524 -531 578 0
-577 119 0
-578 119 0
577 578 -119 0
524 579 0
-524 -579 0
579 -580 0
528 -580 0
-579 -528 580 0
524 -581 0
532 -581 0
-524 -532 581 0
-580 120 0
-581 120 0
580 581 -120 0
524 582 0
-524 -582 0
582 -583 0
533 -583 0
-582 -533 583 0
524 -584 0
551 -584 0
-524 -551 584 0
-583 569 0
-584 569 0
583 584 -569 0
524 -585 0
567 -585 0
-524 -567 585 0
-585 586 0
-569 586 0
585 569 -586 0
586 632 0
-586 -632 0
632 -633 0
587 -633 0
-632 -587 633 0
586 -634 0
591 -634 0
-586 -591 634 0
-633 121 0
-634 121 0
633 634 -121 0
586 635 0
-586 -635 0
635 -636 0
588 -636 0
-635 -588 636 0
586 -637 0
592 -637 0
-586 -592 637 0
-636 122 0
-637 122 0
636 637 -122 0
586 638 0
-586 -638 0
638 -639 0
589 -639 0
-638 -589 639 0
586 -640 0
593 -640 0
-586 -593 640 0
-639 123 0
-640 123 0
639 640 -123 0
586 641 0
-586 -641 0
641 -642 0
590 -642 0
-641 -590 642 0
586 -643 0
594 -643 0
-586 -594 643 0
-642 124 0
-643 124 0
642 643 -124 0
586 644 0
-586 -644 0
644 -645 0
595 -645 0
-644 -595 645 0
586 -646 0
613 -646 0
-586 -613 646 0
-645 631 0
-646 631 0
645 646 -631 0
586 -647 0
629 -647 0
-586 -629 647 0
-647 648 0
-631 648 0
647 631 -648 0
648 694 0
-648 -694 0
694 -695 0
649 -695 0
-694 -649 695 0
648 -696 0
653 -696 0
-648 -653 696 0
-695 125 0
-696 125 0
695 696 -125 0
648 697 0
-648 -697 0
697 -698 0
650 -698 0
-697 -650 698 0
648 -699 0
654 -699 0
-648 -654 699 0
-698 126 0
-699 126 0
698 699 -126 0
648 700 0
-648 -700 0
700 -701 0
651 -701 0
-700 -651 701 0
648 -702 0
655 -702 0
-648 -655 702 0
-701 127 0
-702 127 0
701 702 -127 0
648 703 0
-648 -703 0
703 -704 0
652 -704 0
-703 -652 704 0
648 -705 0
656 -705 0
-648 -656 705 0
-704 128 0
-705 128 0
704 705 -128 0
648 706 0
-648 -706 0
706 -707 0
657 -707 0
-706 -657 707 0
648 -708 0
675 -708 0
-648 -675 708 0
-707 693 0
-708 693 0
707 708 -693 0
648 -709 0
691 -709 0
-648 -691 709 0
-709 710 0
-693 710 0
709 693 -710 0
710 756 0
-710 -756 0
756 -757 0
711 -757 0
-756 -711 757 0
710 -758 0
715 -758 0
-710 -715 758 0
-757 129 0
-758 129 0
757 758 -129 0
710 759 0
-710 -759 0
759 -760 0
712 -760 0
-759 -712 760 0
710 -761 0
716 -761 0
-710 -716 761 0
-760 130 0
-761 130 0
760 761 -130 0
710 762 0
-710 -762 0
762 -763 0
713 -763 0
-762 -713 763 0
710 -764 0
717 -764 0
-710 -717 764 0
-763 131 0
-764 131 0
763 764 -131 0
710 765 0
-710 -765 0
765 -766 0
714 -766 0
-765 -714 766 0
710 -767 0
718 -767 0
-710 -718 767 0
-766 132 0
-767 132 0
766 767 -132 0
710 768 0
-710 -768 0
768 -769 0
719 -769 0
-768 -719 769 0
710 -770 0
737 -770 0
-710 -737 770 0
-769 755 0
-770 755 0
769 770 -755 0
710 -771 0
753 -771 0
-710 -753 771 0
-771 772 0
-755 772 0
771 755 -772 0
772 -133 0
-772 133 0
